NAME : 10_3_3_1_(50).dat
COMMENT : Henke, Speranza, Wäscher, 2015
TYPE : MCVRP
DIMENSION : 11
EDGE_WEIGHT_TYPE : DISTANCE_MATRIX
CAPACITY : 1000
VEHICLES : 2
PRODUCT TYPES : 3
COMPARTMENTS : 3
NODE_COORD_SECTION
1 50 50
2 10.27 39.99
3 95.49 15.83
4 51.16 77.25
5 37.12 69.82
6 35.43 92.38
7 99.84 98.1
8 72.61 66.79
9 35.15 39.93
10 6.03 50.92
11 41.77 57.42
DEMAND_SECTION
1 0 0 0
2 186 0 0
3 113 0 0
4 120 0 0
5 83 0 0
6 0 0 237
7 0 0 58
8 0 39 0
9 182 0 0
10 0 403 0
11 54 0 0
DEPOT_SECTION
1
EOF